Problem:    
Rows:       260
Columns:    89 (72 integer, 72 binary)
Non-zeros:  936
Status:     INTEGER OPTIMAL
Objective:  value = 27.904037 (MINimum)

   No.   Row name        Activity     Lower bound   Upper bound
------ ------------    ------------- ------------- -------------
     1 r.5                    27.904             0               
     2 r.6                   12.9188      -1014.53               
     3 r.7                    1051.9             0               
     4 r.8                  -1011.63      -1015.35               
     5 r.9                    27.904             0               
     6 r.10                  20.9668      -1014.63               
     7 r.11                   1051.9             0               
     8 r.12                 -1003.03       -1015.4               
     9 r.13                   27.904             0               
    10 r.14                  1.51467      -1023.34               
    11 r.15                   1051.9             0               
    12 r.16                 -1020.85      -1022.36               
    13 r.17                   1051.9             0               
    14 r.18                 -1016.77      -1022.85               
    15 r.19                   27.904             0               
    16 r.20                  1.51467       -1021.5               
    17 r.21                   1051.9             0               
    18 r.22                 -1017.92      -1019.44               
    19 r.23                   27.904             0               
    20 r.24                  1.51467      -1019.67               
    21 r.25                   27.904             0               
    22 r.26                  1.51467       -1023.4               
    23 r.27                   1051.9             0               
    24 r.28                 -1022.49      -1022.49               
    25 r.29                   27.904             0               
    26 r.30                   27.904      -1008.87               
    27 r.31                   1051.9             0               
    28 r.32                 -996.096      -1017.06               
    29 r.33                   1051.9             0               
    30 r.34                 -996.096      -1009.01               
    31 r.35                   27.904             0               
    32 r.36                   27.904      -1017.44               
    33 r.37                        1             1             = 
    34 r.38                        1             1             = 
    35 r.39                        1             1             = 
    36 r.40                        1             1             = 
    37 r.41                        1             1             = 
    38 r.42                        1             1             = 
    39 r.43                        1             1             = 
    40 r.44                        1             1             = 
    41 r.45                     1024             2               
    42 r.46                    -1024         -1025               
    43 r.47                  2056.05      -1014.63               
    44 r.48                        2             2               
    45 r.49                       -2         -1025               
    46 r.50                  -1015.4       -1015.4               
    47 r.51                     1024             2               
    48 r.52                    -1024         -1025               
    49 r.53                   2036.6      -1023.34               
    50 r.54                        2             2               
    51 r.55                       -2         -1025               
    52 r.56                 -9.21687      -1022.36               
    53 r.57                     1025             2               
    54 r.58                    -1025         -1025               
    55 r.59                  2042.31      -1022.85               
    56 r.60                     1025             2               
    57 r.61                    -1025         -1025               
    58 r.62                  2037.15       -1021.5               
    59 r.63                     1025             2               
    60 r.64                    -1025         -1025               
    61 r.65                  2041.16      -1019.44               
    62 r.66                     1025             2               
    63 r.67                    -1025         -1025               
    64 r.68                  2037.15      -1019.67               
    65 r.69                  11.4042             0               
    66 r.70                  2.20623             0               
    67 r.71                  11.4042             0               
    68 r.72                  2.20623             0               
    69 r.73                  14.9852      -1008.87               
    70 r.74                 -1009.01      -1017.06               
    71 r.75                  15.5349      -1008.87               
    72 r.76                 -1008.47      -1017.06               
    73 r.77                 -1009.01      -1009.01               
    74 r.78                  14.9852      -1017.44               
    75 r.79                 -1008.47      -1009.01               
    76 r.80                  15.5349      -1017.44               
    77 r.81                     1024             2               
    78 r.82                    -1024         -1025               
    79 r.83                  2039.95        9.4678               
    80 r.84                        2             2               
    81 r.85                       -2         -1025               
    82 r.86                   1015.4       8.64822               
    83 r.87                     1024             2               
    84 r.88                    -1024         -1025               
    85 r.89                  2028.55      -1023.34               
    86 r.90                        2             2               
    87 r.91                       -2         -1025               
    88 r.92                 -17.8146      -1022.36               
    89 r.93                     1025             2               
    90 r.94                    -1025         -1025               
    91 r.95                  2034.26      -1022.85               
    92 r.96                     1025             2               
    93 r.97                    -1025         -1025               
    94 r.98                  2028.55       -1021.5               
    95 r.99                     1025             2               
    96 r.100                   -1025         -1025               
    97 r.101                 2033.11      -1019.44               
    98 r.102                    1025             2               
    99 r.103                   -1025         -1025               
   100 r.104                 2028.55      -1019.67               
   101 r.105                 19.4522             0               
   102 r.106                 10.8544             0               
   103 r.107                 19.4522             0               
   104 r.108                 10.8544             0               
   105 r.109                  6.9372      -1008.87               
   106 r.110                -1017.06      -1017.06               
   107 r.111                  6.9372      -1008.87               
   108 r.112                -1017.06      -1017.06               
   109 r.113                    1025             2               
   110 r.114                   -1025         -1025               
   111 r.115                 2054.94      -1009.01               
   112 r.116                    1025             2               
   113 r.117                   -1025         -1025               
   114 r.118                 2054.94      -1017.44               
   115 r.119                    1024             2               
   116 r.120                   -1024         -1025               
   117 r.121                  2059.4        9.4678               
   118 r.122                       2             2               
   119 r.123                      -2         -1025               
   120 r.124                 9.21687       8.64822               
   121 r.125                    1024             2               
   122 r.126                   -1024         -1025               
   123 r.127                 2067.45        9.3731               
   124 r.128                       2             2               
   125 r.129                      -2         -1025               
   126 r.130                 17.8146       8.59772               
   127 r.131                    1025             2               
   128 r.132                   -1025         -1025               
   129 r.133                 2053.72      -1022.85               
   130 r.134                    1025             2               
   131 r.135                   -1025         -1025               
   132 r.136                 2046.36       -1021.5               
   133 r.137                    1025             2               
   134 r.138                   -1025         -1025               
   135 r.139                 2052.56      -1019.44               
   136 r.140                    1025             2               
   137 r.141                   -1025         -1025               
   138 r.142                 2046.36      -1019.67               
   139 r.143                       0             0               
   140 r.144                       0             0               
   141 r.145                       0             0               
   142 r.146                       0             0               
   143 r.147                 26.3894      -1008.87               
   144 r.148                -997.611      -1017.06               
   145 r.149                 24.7518      -1008.87               
   146 r.150                -999.248      -1017.06               
   147 r.151                -997.611      -1009.01               
   148 r.152                 26.3894      -1017.44               
   149 r.153                -999.248      -1009.01               
   150 r.154                 24.7518      -1017.44               
   151 r.155                    1025             2               
   152 r.156                   -1025         -1025               
   153 r.157                    2048        9.4678               
   154 r.158                    1025             2               
   155 r.159                   -1025         -1025               
   156 r.160                 2064.73       8.64822               
   157 r.161                    1025             2               
   158 r.162                   -1025         -1025               
   159 r.163                 2056.05        9.3731               
   160 r.164                    1025             2               
   161 r.165                   -1025         -1025               
   162 r.166                 2073.33       8.59772               
   163 r.167                    1025             2               
   164 r.168                   -1025         -1025               
   165 r.169                  2036.6      0.664444               
   166 r.170                    1025             2               
   167 r.171                   -1025         -1025               
   168 r.172                 2055.52       1.63758               
   169 r.173                       2             2               
   170 r.174                      -2         -1025               
   171 r.175                -6.84004      -1019.44               
   172 r.176                    1024             2               
   173 r.177                   -1024         -1025               
   174 r.178                 2053.88      -1019.67               
   175 r.179                 4.56413             0               
   176 r.180                       0             0               
   177 r.181                 4.56413             0               
   178 r.182                       0             0               
   179 r.183                 14.9852      -1008.87               
   180 r.184                -1009.01      -1017.06               
   181 r.185                 32.2699      -1008.87               
   182 r.186                 -991.73      -1017.06               
   183 r.187                       2             2               
   184 r.188                      -2         -1025               
   185 r.189                -1009.01      -1009.01               
   186 r.190                    1024             2               
   187 r.191                   -1024         -1025               
   188 r.192                 2080.27      -1017.44               
   189 r.193                    1025             2               
   190 r.194                   -1025         -1025               
   191 r.195                 2054.84        9.4678               
   192 r.196                    1025             2               
   193 r.197                   -1025         -1025               
   194 r.198                 2058.85       8.64822               
   195 r.199                    1025             2               
   196 r.200                   -1025         -1025               
   197 r.201                 2062.89        9.3731               
   198 r.202                    1025             2               
   199 r.203                   -1025         -1025               
   200 r.204                 2067.45       8.59772               
   201 r.205                    1025             2               
   202 r.206                   -1025         -1025               
   203 r.207                 2043.44      0.664444               
   204 r.208                    1025             2               
   205 r.209                   -1025         -1025               
   206 r.210                 2049.64       1.63758               
   207 r.211                       2             2               
   208 r.212                      -2         -1025               
   209 r.213                 1.15124       1.15124               
   210 r.214                    1024             2               
   211 r.215                   -1024         -1025               
   212 r.216                    2048       2.49851               
   213 r.217                       0             0               
   214 r.218                       0             0               
   215 r.219                       0             0               
   216 r.220                       0             0               
   217 r.221                    1025             2               
   218 r.222                   -1025         -1025               
   219 r.223                 2069.83      -1008.87               
   220 r.224                    1025             2               
   221 r.225                   -1025         -1025               
   222 r.226                 2074.39      -1017.06               
   223 r.227                -1002.17      -1009.01               
   224 r.228                 21.8252      -1017.44               
   225 r.229                -997.611      -1009.01               
   226 r.230                 26.3894      -1017.44               
   227 r.231                 26.3894      -1008.87               
   228 r.232                -997.611      -1017.06               
   229 r.233                 26.3894      -1008.87               
   230 r.234                -997.611      -1017.06               
   231 r.235                    1025             2               
   232 r.236                   -1025         -1025               
   233 r.237                 2026.17       4.56413               
   234 r.238                    1025             2               
   235 r.239                   -1025         -1025               
   236 r.240                 2021.61       4.33416               
   237 r.241                    1025             2               
   238 r.242                   -1025         -1025               
   239 r.243                    2048      -1009.01               
   240 r.244                    1025             2               
   241 r.245                   -1025         -1025               
   242 r.246                    2048      -1017.44               
   243 r.247                    1025             2               
   244 r.248                   -1025         -1025               
   245 r.249                 2041.06        9.3731               
   246 r.250                    1025             2               
   247 r.251                   -1025         -1025               
   248 r.252                 2041.06       8.59772               
   249 r.253                       2             2               
   250 r.254                      -2         -1025               
   251 r.255                 1003.33       1.15124               
   252 r.256                    1024             2               
   253 r.257                   -1024         -1025               
   254 r.258                 2021.61       2.49851               
   255 r.259                    1025             2               
   256 r.260                   -1025         -1025               
   257 r.261                    2048       15.1251               
   258 r.262                    1025             2               
   259 r.263                   -1025         -1025               
   260 r.264                    2048        6.9372               

   No. Column name       Activity     Lower bound   Upper bound
------ ------------    ------------- ------------- -------------
     1 tt                     27.904             0               
     2 s_1_1        *              0             0             1 
     3 t_1_1                 14.9852             0               
     4 s_1_7        *              0             0             1 
     5 s_2_1        *              1             0             1 
     6 t_2_1                 15.5349             0               
     7 s_2_7        *              1             0             1 
     8 s_1_2        *              0             0             1 
     9 t_1_2                  6.9372             0               
    10 s_2_2        *              1             0             1 
    11 t_2_2                  6.9372             0               
    12 s_1_3        *              0             0             1 
    13 t_1_3                 26.3894             0               
    14 s_2_3        *              1             0             1 
    15 t_2_3                 24.7518             0               
    16 s_1_4        *              1             0             1 
    17 t_1_4                 14.9852             0               
    18 s_2_4        *              0             0             1 
    19 t_2_4                 32.2699             0               
    20 s_1_5        *              1             0             1 
    21 t_1_5                 21.8252             0               
    22 s_1_8        *              1             0             1 
    23 s_2_5        *              0             0             1 
    24 t_2_5                 26.3894             0               
    25 s_2_8        *              0             0             1 
    26 s_1_6        *              0             0             1 
    27 t_1_6                 26.3894             0               
    28 s_2_6        *              1             0             1 
    29 t_2_6                 26.3894             0               
    30 t_1_7                       0             0               
    31 t_2_7                       0             0               
    32 t_1_8                       0             0               
    33 t_2_8                       0             0               
    34 r_1_1_2      *              1             0             1 
    35 u_1_1_2      *              0             0             1 
    36 r_2_1_2      *              0             0             1 
    37 u_2_1_2      *              1             0             1 
    38 r_1_1_3      *              1             0             1 
    39 u_1_1_3      *              0             0             1 
    40 r_2_1_3      *              0             0             1 
    41 u_2_1_3      *              0             0             1 
    42 r_1_1_4      *              1             0             1 
    43 u_1_1_4      *              0             0             1 
    44 r_2_1_4      *              1             0             1 
    45 u_2_1_4      *              0             0             1 
    46 r_1_1_5      *              1             0             1 
    47 u_1_1_5      *              0             0             1 
    48 r_2_1_5      *              1             0             1 
    49 u_2_1_5      *              0             0             1 
    50 r_1_2_3      *              1             0             1 
    51 u_1_2_3      *              0             0             1 
    52 r_2_2_3      *              0             0             1 
    53 u_2_2_3      *              0             0             1 
    54 r_1_2_4      *              1             0             1 
    55 u_1_2_4      *              0             0             1 
    56 r_2_2_4      *              1             0             1 
    57 u_2_2_4      *              0             0             1 
    58 r_1_2_5      *              1             0             1 
    59 u_1_2_5      *              0             0             1 
    60 r_2_2_5      *              1             0             1 
    61 u_2_2_5      *              0             0             1 
    62 r_1_2_8      *              1             0             1 
    63 u_1_2_8      *              0             0             1 
    64 r_2_2_8      *              1             0             1 
    65 u_2_2_8      *              0             0             1 
    66 r_1_3_4      *              1             0             1 
    67 u_1_3_4      *              0             0             1 
    68 r_2_3_4      *              1             0             1 
    69 u_2_3_4      *              0             0             1 
    70 r_1_3_5      *              1             0             1 
    71 u_1_3_5      *              0             0             1 
    72 r_2_3_5      *              1             0             1 
    73 u_2_3_5      *              0             0             1 
    74 r_1_4_5      *              0             0             1 
    75 u_1_4_5      *              0             0             1 
    76 r_2_4_5      *              1             0             1 
    77 u_2_4_5      *              0             0             1 
    78 r_1_4_8      *              0             0             1 
    79 u_1_4_8      *              1             0             1 
    80 r_2_4_8      *              1             0             1 
    81 u_2_4_8      *              0             0             1 
    82 r_1_5_7      *              1             0             1 
    83 u_1_5_7      *              0             0             1 
    84 r_2_5_7      *              1             0             1 
    85 u_2_5_7      *              0             0             1 
    86 r_1_7_8      *              1             0             1 
    87 u_1_7_8      *              0             0             1 
    88 r_2_7_8      *              1             0             1 
    89 u_2_7_8      *              0             0             1 

Integer feasibility conditions:

KKT.PE: max.abs.err = 4.55e-13 on row 43
        max.rel.err = 1.11e-16 on row 248
        High quality

KKT.PB: max.abs.err = 1.14e-13 on row 24
        max.rel.err = 7.23e-16 on row 209
        High quality

End of output
